0,6
1,6
2,0
3,6
4,4
5,0
6,5
7,2
8,1
9,2
10,1
11,2
12,0
13,6
14,3
15,5
16,7
17,5
18,5
19,4
20,1
21,5
22,9
23,9
24,3
25,2
26,6
27,6
28,4
29,2
30,9
31,1
32,1
33,1
34,2
35,6
36,6
37,1
38,9
39,7
40,7
41,1
42,9
43,9
44,10
45,9
46,8
47,5
48,2
49,4
50,1
51,0
52,9
53,3
54,3
55,3
56,5
57,6
58,0
59,8
60,6
61,9
62,3
63,4
64,0
65,0
66,0
67,0
68,0
69,0
70,0
71,0
72,0
73,0
74,0
75,0
76,0
77,0
78,0
79,0
80,0
81,0
82,0
83,0
84,0
85,0
86,0
87,0
88,0
89,0
90,0
91,0
92,0
93,0
94,0
95,0
